3
4
2 2 2 -10
1 -2 1
1 1 1 1 1
2 1 1 2 1
3 1 2 2 1
3 2 1 1 1
1 2 1 2 1
0 2 2 2 -2
2 3 1 1 1
3 3 1 1 1
0 3 1 2 -0.8
2 3 2 2 1
3 3 2 2 1
1 4 1 1 1
1 4 2 2 -1
0 4 2 2 -2
2 4 3 3 1
0 4 3 3 -2
2 4 4 4 -1
0 4 4 4 -1
3 4 5 5 1
0 4 5 5 -1
3 4 6 6 -1
0 4 6 6 -1
1 4 7 7 -1
3 4 7 7 -1
0 4 7 7 -2
2 4 8 8 -1
1 4 8 8 1
1 4 9 9 1
2 4 9 9 1
0 4 9 9 1.5
1 4 10 10 1
2 4 10 10 1
3 4 10 10 1
0 4 10 10 1.8
*INTEGER
*1
*2
*3
